param K := 10;
param eps := 0.05;

set Ct:= SC1 SC2;
set M := MS1_1 MS1_2 MS2_1 MS2_2;
set F := F1 F2 F3;
set C["SC1"] := MS1_1 MS1_2;
set C["SC2"] := MS2_1 MS2_2;

param:      lm      Sm      Om      :=
MS1_1       0.045       6.255378051128      6.255378051128
MS1_2       0.045       3.744621948872      3.744621948872
MS2_1       0.045       2.3003649950123064      2.3003649950123064
MS2_2       0.045       7.699635004987694      7.699635004987694
;

param:  lc  :=
SC1   0.045
SC2   0.045
;

param   P   :=
 F1  1.0
 F2  1.0
 F3  1.0
;

param   o:    MS1_1    MS1_2    MS2_1    MS2_2    :=
    MS1_1    0    0    0    0
    MS1_2    1    0    0    0
    MS2_1    0    0    0    0
    MS2_2    0    0    1    0
;

param   d:    F1    F2    F3    :=
    F1    0.0    5.428314216129073    5.428314216129073
    F2    5.428314216129073    0.0    4.703847107197291
    F3    5.428314216129073    4.703847107197291    0.0
;